10J3M/DAT/10J3MULR-11.dat
10 3
22.2468 33.2745
46.6017 0.7136
22.575 37.5021
16.5874 47.9808
16.2961 29.6626
1.3496 45.0629
42.4796 1.8396
10.3854 0.4393
0.6319 21.644
40.2294 37.0628
85.0607