10J3M/SOL/10J3MULR-11.sol
solution status: optimal solution found
objective value:                     73.1276323601614
x#1#1                                               1 	(obj:0)
x#2#2                               0.140796311868673 	(obj:0)
x#2#3                               0.859203688131327 	(obj:0)
x#3#1                               0.390532068825169 	(obj:0)
x#3#2                               0.609467931174831 	(obj:0)
x#4#3                                               1 	(obj:0)
x#5#3                                               1 	(obj:0)
x#6#2                               0.849007226606599 	(obj:0)
x#6#3                               0.150992773393401 	(obj:0)
x#7#2                                               1 	(obj:0)
x#8#1                               0.176706810179022 	(obj:0)
x#8#2                               0.823293189820978 	(obj:0)
x#9#2                               0.999995379781926 	(obj:0)
x#10#1                                              1 	(obj:0)
z                                    73.1276323601614 	(obj:1)
